38
2 0 7
3 1 3
3 2 1
4 0 7
4 3 9
5 0 2
5 3 5
6 0 9
6 1 6
6 2 7
6 3 1
6 4 6
7 3 2
7 6 5
8 0 1
8 6 1
8 7 7
9 0 4
9 4 5
9 7 3
9 8 1
10 7 4
11 0 9
11 1 6
11 4 1
11 5 3
11 7 7
11 9 8
11 10 8
12 1 2
12 4 5
12 5 5
12 11 4
13 0 6
13 3 4
13 5 5
13 6 3
13 8 4
13 9 6
13 12 1
14 0 9
14 1 6
14 2 6
14 6 1
14 8 9
14 9 6
14 11 6
14 12 9
14 13 4
15 1 2
15 4 4
15 5 7
15 6 2
15 7 9
15 9 8
15 10 2
15 12 6
15 13 6
15 14 9
16 2 9
16 3 3
16 4 7
16 6 6
16 8 4
16 11 8
16 13 7
16 14 1
17 0 8
17 1 6
17 2 6
17 3 3
17 4 1
17 6 5
17 9 6
17 10 9
17 13 2
17 14 2
17 15 9
18 0 4
18 1 8
18 2 1
18 3 2
18 10 4
18 14 9
18 15 6
18 16 7
19 2 3
19 6 2
19 7 8
19 8 3
19 9 3
19 10 2
19 13 6
19 14 7
19 16 6
19 18 4
20 0 6
20 3 7
20 4 7
20 5 1
20 7 3
20 8 2
20 9 2
20 10 5
20 12 2
20 13 7
20 14 1
20 16 6
21 0 6
21 5 1
21 6 3
21 8 6
21 11 4
21 13 4
21 15 4
21 16 8
21 19 6
22 0 9
22 1 7
22 2 7
22 4 9
22 7 4
22 9 9
22 11 5
22 13 5
22 14 4
22 16 1
22 17 6
22 21 8
23 0 1
23 1 8
23 2 8
23 3 7
23 4 1
23 6 4
23 8 6
23 9 7
23 11 4
23 12 3
23 13 9
23 17 8
23 21 1
23 22 2
24 0 2
24 1 3
24 4 7
24 5 5
24 6 6
24 7 9
24 10 2
24 14 4
24 18 9
24 21 6
25 4 7
25 5 5
25 7 8
25 8 6
25 13 8
25 15 3
25 16 1
25 17 5
25 21 6
25 22 6
25 23 5
25 24 5
26 0 3
26 2 4
26 5 5
26 6 3
26 9 1
26 10 5
26 12 9
26 13 9
26 14 4
26 17 2
26 18 3
26 20 4
26 25 9
27 2 7
27 4 5
27 5 2
27 7 2
27 10 4
27 11 2
27 14 5
27 18 8
27 19 7
27 21 5
27 22 4
27 24 6
28 0 3
28 1 5
28 4 5
28 5 8
28 8 5
28 12 7
28 14 7
28 15 3
28 17 4
28 20 9
28 21 5
28 22 5
28 23 1
28 25 5
29 0 7
29 1 5
29 2 5
29 6 3
29 8 2
29 13 9
29 14 4
29 19 2
29 22 9
29 25 4
29 26 9
30 2 3
30 5 9
30 10 2
30 11 8
30 12 5
30 13 1
30 15 7
30 20 7
30 25 1
30 28 1
30 29 5
31 1 1
31 6 1
31 8 3
31 10 1
31 12 9
31 13 6
31 16 6
31 17 1
31 19 6
31 22 2
31 25 3
31 27 1
31 28 7
31 29 4
31 30 5
32 4 7
32 6 8
32 7 5
32 9 7
32 14 8
32 16 7
32 21 1
32 22 5
32 23 1
32 24 7
32 25 6
32 26 9
32 27 9
32 28 8
32 31 6
33 2 2
33 6 2
33 7 7
33 8 5
33 11 8
33 12 4
33 13 1
33 16 4
33 17 3
33 18 9
33 19 7
33 21 2
33 22 4
33 23 2
33 24 9
33 28 8
33 31 5
33 32 2
34 0 5
34 2 1
34 3 8
34 4 8
34 7 5
34 11 3
34 15 1
34 18 3
34 19 7
34 21 5
34 25 6
34 26 2
34 27 2
34 28 8
34 29 9
34 33 2
35 1 5
35 2 3
35 5 1
35 6 9
35 9 2
35 10 4
35 11 4
35 12 3
35 13 5
35 18 8
35 20 8
35 21 3
35 25 9
35 26 6
35 27 8
35 28 6
35 34 1
36 1 9
36 7 9
36 9 2
36 10 7
36 11 6
36 12 6
36 13 2
36 14 9
36 15 9
36 18 2
36 20 9
36 21 1
36 22 5
36 23 1
36 24 6
36 27 2
36 28 5
36 31 7
36 32 2
36 34 9
37 1 5
37 6 9
37 9 5
37 10 2
37 11 1
37 12 2
37 13 5
37 14 5
37 16 9
37 17 5
37 18 6
37 19 1
37 20 6
37 21 9
37 22 2
37 25 4
37 29 4
37 33 1
37 35 8
